2 15
608 704 
0 63 58 74 76 59 67 1
1 106 98 32 41 9 73 2
2 62 52 26 23 99 5 1
3 96 93 47 40 31 90 1
4 10 18 77 69 8 54 2
5 67 76 14 22 42 57 2
6 68 67 89 94 81 24 2
7 20 18 58 56 59 96 1
8 8 15 72 82 55 1 1
9 24 20 67 67 59 59 2
10 90 98 39 36 80 57 1
11 79 77 85 88 90 25 2
12 37 30 65 73 84 94 1
13 7 10 65 57 7 28 2
14 33 31 63 57 45 1 2
